(set-info :origin "SVCOMP13 benchmarks generated by Arie Gurfinkel")
(set-info :status unsat)
(set-logic HORN)
(declare-fun cp-rel-__UFO__0
             (Real
              Real
              Real
              Real
              Real
              Real
              Real
              Bool
              Real
              Real
              Real
              Real
              Real
              Real
              Real)
             Bool)
(declare-fun cp-rel-entry () Bool)
(declare-fun cp-rel-bb.i80.i.outer
             (Real Real Real Real Real Real Real Real)
             Bool)
(declare-fun cp-rel-UnifiedReturnBlock () Bool)
(declare-fun cp-rel-bb.i80.i (Bool Real Real Real Real Real Real Real) Bool)
(assert |cp-rel-entry|)
(assert (forall ((?A Real) (?B Real) (?C Real) (?D Real) (?E Real) (?F Real) (?G Real) (?H Real) (?I Bool) )(let (($x646802 (= ?I true)))
(let (($x162453 (and |cp-rel-entry| (<= ?H 0.0) (>= ?G 0.0) (<= ?G 0.0) (>= ?F 0.0) (<= ?F 0.0) (>= ?E 0.0) (<= ?E 0.0) (>= ?D 0.0) (<= ?D 0.0) (>= ?C 0.0) (<= ?C 0.0) (>= ?B 0.0) (<= ?B 0.0) (>= ?A 0.0) (<= ?A 0.0) $x646802 (>= ?H 0.0))))
(=> $x162453 (|cp-rel-bb.i80.i.outer| ?A ?B ?C ?D ?E ?F ?G ?H)))))
)
(assert (forall ((?A Real) (?B Real) (?C Real) (?D Real) (?E Real) (?F Real) (?G Real) (?H Real) (?I Bool) (?J Real) (?K Real) (?L Real) (?M Real) (?N Real) (?O Real) (?P Real) (?Q Bool) (?R Bool) (?S Bool) (?T Bool) (?U Bool) (?V Bool) (?W Bool) (?X Bool) (?Y Bool) (?Z Bool) (?A1 Bool) (?B1 Bool) (?C1 Bool) (?D1 Bool) (?E1 Bool) (?F1 Bool) (?G1 Bool) (?H1 Bool) (?I1 Bool) (?J1 Bool) (?K1 Bool) (?L1 Real) (?M1 Real) (?N1 Real) (?O1 Real) (?P1 Real) (?Q1 Real) (?R1 Real) (?S1 Bool) (?T1 Bool) (?U1 Bool) (?V1 Bool) (?W1 Bool) (?X1 Bool) (?Y1 Bool) (?Z1 Bool) (?A2 Bool) (?B2 Bool) (?C2 Bool) (?D2 Bool) (?E2 Bool) (?F2 Real) (?G2 Real) (?H2 Real) (?I2 Real) (?J2 Real) (?K2 Real) (?L2 Bool) (?M2 Bool) (?N2 Bool) (?O2 Bool) (?P2 Bool) (?Q2 Bool) (?R2 Bool) (?S2 Bool) (?T2 Bool) (?U2 Bool) (?V2 Bool) (?W2 Real) (?X2 Real) (?Y2 Bool) (?Z2 Real) (?A3 Real) (?B3 Bool) (?C3 Bool) (?D3 Bool) (?E3 Bool) (?F3 Bool) (?G3 Bool) (?H3 Real) (?I3 Bool) (?J3 Bool) (?K3 Real) (?L3 Bool) (?M3 Real) (?N3 Real) (?O3 Bool) )(let (($x389405 (not ?C1)))
(let (($x924460 (or $x389405 ?D1)))
(let (($x870238 (or (not ?F1) (and ?C1 ?G1 (not ?H1)) (and ?W ?I1 (not ?E1)))))
(let (($x118855 (and ?U ?T1 ?B1 (<= ?L1 ?J) (>= ?L1 ?J) (<= ?M1 ?L) (>= ?M1 ?L) (<= ?O1 ?M) (>= ?O1 ?M) (<= ?P1 ?N) (>= ?P1 ?N) (<= ?Q1 ?O) (>= ?Q1 ?O))))
(let (($x173552 (and ?Q ?S1 ?Y (<= ?L1 ?J) (>= ?L1 ?J) (<= ?M1 ?L) (>= ?M1 ?L) (<= ?O1 ?M) (>= ?O1 ?M) (<= ?P1 ?N) (>= ?P1 ?N) (<= ?Q1 ?O) (>= ?Q1 ?O))))
(let (($x165470 (and ?F1 ?K1 (<= ?L1 1.0) (>= ?L1 1.0) (<= ?M1 ?N1) (>= ?M1 ?N1) (<= ?O1 ?N1) (>= ?O1 ?N1) (<= ?P1 2.0) (>= ?P1 2.0) (<= ?Q1 ?R1) (>= ?Q1 ?R1))))
(let (($x28567 (or (not ?J1) (and ?K1 (not ?S1) (not ?T1)) (and ?S1 (not ?K1) (not ?T1)) (and ?T1 (not ?K1) (not ?S1)))))
(let (($x578847 (not ?A2)))
(let (($x202271 (or $x578847 ?B2)))
(let (($x577617 (>= ?J2 ?P)))
(let (($x74733 (<= ?J2 ?P)))
(let (($x28589 (>= ?G2 ?M1)))
(let (($x610049 (<= ?G2 ?M1)))
(let (($x927775 (and ?J1 ?N2 (not ?W1) (<= ?F2 ?K) (>= ?F2 ?K) $x610049 $x28589 (<= ?I2 ?Q1) (>= ?I2 ?Q1) $x74733 $x577617)))
(let (($x438395 (and ?U1 ?M2 ?Z1 (<= ?F2 ?K) (>= ?F2 ?K) $x610049 $x28589 (<= ?I2 ?Q1) (>= ?I2 ?Q1) $x74733 $x577617)))
(let (($x361584 (and ?X1 ?L2 (not ?C2) (<= ?F2 1.0) (>= ?F2 1.0) $x610049 $x28589 (<= ?I2 2.0) (>= ?I2 2.0) $x74733 $x577617)))
(let (($x301673 (and ?A2 ?E2 (<= ?F2 1.0) (>= ?F2 1.0) (<= ?G2 ?H2) (>= ?G2 ?H2) (<= ?I2 2.0) (>= ?I2 2.0) (<= ?J2 ?K2) (>= ?J2 ?K2))))
(let (($x553483 (not ?D2)))
(let (($x622473 (or $x553483 (and ?E2 (not ?L2) (not ?M2) (not ?N2)) (and ?L2 (not ?E2) (not ?M2) (not ?N2)) (and ?M2 (not ?E2) (not ?L2) (not ?N2)) (and ?N2 (not ?E2) (not ?L2) (not ?M2)))))
(let (($x454303 (not ?U2)))
(let (($x862161 (or $x454303 ?V2)))
(let (($x86110 (and ?Z ?Y2 (<= ?A ?J) (>= ?A ?J) (<= ?B ?K) (>= ?B ?K) (<= ?C ?Z2) (>= ?C ?Z2) (<= ?D ?L) (>= ?D ?L) (<= ?E ?M) (>= ?E ?M) (<= ?F ?N) (>= ?F ?N) (<= ?G ?O) (>= ?G ?O) (<= ?H ?P) (>= ?H ?P))))
(let (($x795510 (and ?R2 (not ?I) (<= ?A ?L1) (>= ?A ?L1) (<= ?B ?F2) (>= ?B ?F2) (<= ?C 1.0) (>= ?C 1.0) (<= ?D ?G2) (>= ?D ?G2) (<= ?E ?O1) (>= ?E ?O1) (<= ?F ?P1) (>= ?F ?P1) (<= ?G ?I2) (>= ?G ?I2) (<= ?H 2.0) (>= ?H 2.0))))
(let (($x30223 (and ?U2 (<= ?A ?L1) (>= ?A ?L1) (<= ?B ?F2) (>= ?B ?F2) (<= ?C 1.0) (>= ?C 1.0) (<= ?D ?W2) (>= ?D ?W2) (<= ?E ?O1) (>= ?E ?O1) (<= ?F ?X2) (>= ?F ?X2) (<= ?G ?I2) (>= ?G ?I2) (<= ?H 2.0) (>= ?H 2.0))))
(let (($x257739 (and (|cp-rel-bb.i80.i| ?I ?J ?K ?L ?M ?N ?O ?P) (= ?O3 (= ?L1 1.0)) (= ?W2 (+ 1.0 ?G2)) (= ?T2 (= ?N3 0.0)) (= ?Q2 (= ?J2 0.0)) (= ?K2 (ite ?I 0.0 ?P)) (= ?H2 (+ 1.0 ?M1)) (= ?C2 (= ?K 1.0)) (= ?Z1 (= ?M3 0.0)) (= ?W1 (= ?Q1 0.0)) (= ?R1 (ite ?L3 0.0 ?O)) (= ?L3 (= ?K 1.0)) (= ?H1 (or ?J3 ?I3)) (= ?J3 (= ?K3 5.0)) (= ?I3 (not (= ?H3 ?L))) (= ?H3 (+ 2.0 ?M)) (= ?Y2 (or ?G3 ?F3)) (= ?G3 (or ?E3 ?D3)) (= ?F3 (= ?P 0.0)) (= ?E3 (= ?O 0.0)) (= ?D3 (= ?N 0.0)) (= ?E1 (= ?J 1.0)) (= ?B1 (or ?C3 ?B3)) (= ?C3 (= ?P 0.0)) (= ?B3 (= ?O 0.0)) (= ?Y (= ?A3 0.0)) (= ?T (= ?N 0.0)) (or $x30223 $x795510 $x86110) $x862161 (or $x454303 (and ?R2 ?V2 ?I)) (or (not ?R2) ?S2) (or (not ?R2) (and ?O2 ?S2 (not ?T2))) (or (not ?O2) ?P2) (or (not ?O2) (and ?D2 ?P2 ?Q2)) $x622473 (or $x553483 $x301673 $x361584 $x438395 $x927775) $x202271 (or $x578847 (and ?X1 ?B2 ?C2)) (or (not ?X1) ?Y1) (or (not ?X1) (and ?U1 ?Y1 (not ?Z1))) (or (not ?U1) ?V1) (or (not ?U1) (and ?J1 ?V1 ?W1)) $x28567 (or (not ?J1) $x165470 $x173552 $x118855) (or (not ?F1) (and ?G1 (not ?I1)) (and ?I1 (not ?G1))) $x870238 $x924460 (or $x389405 (and ?W ?D1 ?E1)) (or (not ?Z) ?A1) (or (not ?Z) (and ?U ?A1 (not ?B1))) (or (not ?W) ?X) (or (not ?W) (and ?Q ?X (not ?Y))) (or (not ?U) ?V) (or (not ?U) (and ?R ?V (not ?T))) (or (not ?Q) ?S) (or (not ?Q) (and ?R ?S ?T)) (= ?X2 (ite ?O3 0.0 ?P1)))))
(=> $x257739 (|cp-rel-bb.i80.i.outer| ?A ?B ?C ?D ?E ?F ?G ?H))))))))))))))))))))))))))))
)
(assert (forall ((?A Real) (?B Real) (?C Real) (?D Real) (?E Real) (?F Real) (?G Real) (?H Real) (?I Bool) (?J Real) (?K Real) (?L Real) (?M Real) (?N Real) (?O Real) (?P Real) (?Q Bool) )(let (($x646802 (= ?Q true)))
(let (($x528262 (and (|cp-rel-bb.i80.i.outer| ?A ?B ?C ?D ?E ?F ?G ?H) (>= ?P ?H) (<= ?P ?H) (>= ?O ?G) (<= ?O ?G) (>= ?N ?F) (<= ?N ?F) (>= ?M ?E) (<= ?M ?E) (>= ?L ?D) (<= ?L ?D) (>= ?K ?B) (<= ?K ?B) (>= ?J ?A) (<= ?J ?A) $x646802 (= ?I (= ?C 1.0)))))
(=> $x528262 (|cp-rel-bb.i80.i| ?I ?J ?K ?L ?M ?N ?O ?P)))))
)
(assert (forall ((?A Bool) (?B Real) (?C Real) (?D Real) (?E Real) (?F Real) (?G Real) (?H Real) (?I Bool) (?J Bool) (?K Bool) (?L Bool) (?M Bool) (?N Bool) (?O Bool) (?P Bool) (?Q Bool) (?R Bool) (?S Bool) (?T Bool) (?U Bool) (?V Bool) (?W Bool) (?X Bool) (?Y Bool) (?Z Bool) (?A1 Bool) (?B1 Real) (?C1 Real) (?D1 Real) (?E1 Real) (?F1 Real) (?G1 Real) (?H1 Real) (?I1 Bool) (?J1 Bool) (?K1 Bool) (?L1 Bool) (?M1 Bool) (?N1 Bool) (?O1 Bool) (?P1 Bool) (?Q1 Bool) (?R1 Bool) (?S1 Bool) (?T1 Bool) (?U1 Bool) (?V1 Real) (?W1 Real) (?X1 Real) (?Y1 Real) (?Z1 Real) (?A2 Real) (?B2 Bool) (?C2 Bool) (?D2 Bool) (?E2 Bool) (?F2 Bool) (?G2 Bool) (?H2 Bool) (?I2 Real) (?J2 Bool) (?K2 Bool) (?L2 Real) (?M2 Bool) (?N2 Bool) (?O2 Real) (?P2 Bool) (?Q2 Real) (?R2 Real) (?S2 Real) (?T2 Real) (?U2 Real) (?V2 Real) (?W2 Real) (?X2 Real) (?Y2 Real) )(let (($x389405 (not ?M)))
(let (($x924460 (or $x389405 ?N)))
(let (($x331203 (or (not ?V) (and ?S ?W (not ?X)) (and ?O ?Y (not ?U)))))
(let (($x324089 (and ?M ?J1 ?R (<= ?B1 ?B) (>= ?B1 ?B) (<= ?C1 ?D) (>= ?C1 ?D) (<= ?E1 ?E) (>= ?E1 ?E) (<= ?F1 ?F) (>= ?F1 ?F) (<= ?G1 ?G) (>= ?G1 ?G))))
(let (($x254564 (and ?I ?I1 ?Q (<= ?B1 ?B) (>= ?B1 ?B) (<= ?C1 ?D) (>= ?C1 ?D) (<= ?E1 ?E) (>= ?E1 ?E) (<= ?F1 ?F) (>= ?F1 ?F) (<= ?G1 ?G) (>= ?G1 ?G))))
(let (($x721252 (and ?V ?A1 (<= ?B1 1.0) (>= ?B1 1.0) (<= ?C1 ?D1) (>= ?C1 ?D1) (<= ?E1 ?D1) (>= ?E1 ?D1) (<= ?F1 2.0) (>= ?F1 2.0) (<= ?G1 ?H1) (>= ?G1 ?H1))))
(let (($x401288 (or (not ?Z) (and ?A1 (not ?I1) (not ?J1)) (and ?I1 (not ?A1) (not ?J1)) (and ?J1 (not ?A1) (not ?I1)))))
(let (($x578847 (not ?K1)))
(let (($x202271 (or $x578847 ?L1)))
(let (($x565106 (>= ?Z1 ?H)))
(let (($x195772 (<= ?Z1 ?H)))
(let (($x185350 (>= ?W1 ?C1)))
(let (($x177509 (<= ?W1 ?C1)))
(let (($x150040 (and ?Z ?D2 (not ?M1) (<= ?V1 ?C) (>= ?V1 ?C) $x177509 $x185350 (<= ?Y1 ?G1) (>= ?Y1 ?G1) $x195772 $x565106)))
(let (($x404240 (and ?K1 ?C2 ?P1 (<= ?V1 ?C) (>= ?V1 ?C) $x177509 $x185350 (<= ?Y1 ?G1) (>= ?Y1 ?G1) $x195772 $x565106)))
(let (($x394637 (and ?N1 ?B2 (not ?S1) (<= ?V1 1.0) (>= ?V1 1.0) $x177509 $x185350 (<= ?Y1 2.0) (>= ?Y1 2.0) $x195772 $x565106)))
(let (($x107154 (and ?Q1 ?U1 (<= ?V1 1.0) (>= ?V1 1.0) (<= ?W1 ?X1) (>= ?W1 ?X1) (<= ?Y1 2.0) (>= ?Y1 2.0) (<= ?Z1 ?A2) (>= ?Z1 ?A2))))
(let (($x433566 (or (not ?T1) (and ?U1 (not ?B2) (not ?C2) (not ?D2)) (and ?B2 (not ?U1) (not ?C2) (not ?D2)) (and ?C2 (not ?U1) (not ?B2) (not ?D2)) (and ?D2 (not ?U1) (not ?B2) (not ?C2)))))
(let (($x454303 (not ?E2)))
(let (($x862161 (or $x454303 ?F2)))
(let (($x860069 (not ?G2)))
(let (($x857644 (and ?T1 $x860069 (<= ?S2 ?B1) (>= ?S2 ?B1) (<= ?T2 ?V1) (>= ?T2 ?V1) (<= ?U2 ?W1) (>= ?U2 ?W1) (<= ?V2 ?E1) (>= ?V2 ?E1) (<= ?W2 ?F1) (>= ?W2 ?F1) (<= ?X2 ?Y1) (>= ?X2 ?Y1) (<= ?Y2 ?Z1) (>= ?Y2 ?Z1))))
(let (($x886718 (and ?E2 ?H2 (<= ?S2 ?B1) (>= ?S2 ?B1) (<= ?T2 ?V1) (>= ?T2 ?V1) (<= ?U2 ?W1) (>= ?U2 ?W1) (<= ?V2 ?E1) (>= ?V2 ?E1) (<= ?W2 ?F1) (>= ?W2 ?F1) (<= ?X2 ?Y1) (>= ?X2 ?Y1) (<= ?Y2 ?Z1) (>= ?Y2 ?Z1))))
(let (($x526395 (and (|cp-rel-bb.i80.i| ?A ?B ?C ?D ?E ?F ?G ?H) (= ?G2 (= ?Z1 0.0)) (= ?A2 (ite ?A 0.0 ?H)) (= ?X1 (+ 1.0 ?C1)) (= ?S1 (= ?C 1.0)) (= ?P1 (= ?Q2 0.0)) (= ?M1 (= ?G1 0.0)) (= ?H1 (ite ?P2 0.0 ?G)) (= ?P2 (= ?C 1.0)) (= ?X (or ?N2 ?M2)) (= ?N2 (= ?O2 5.0)) (= ?M2 (not (= ?L2 ?D))) (= ?L2 (+ 2.0 ?E)) (= ?U (= ?B 1.0)) (= ?R (or ?K2 ?J2)) (= ?K2 (= ?H 0.0)) (= ?J2 (= ?G 0.0)) (= ?Q (= ?I2 0.0)) (= ?L (= ?F 0.0)) (or $x886718 $x857644) $x862161 (or $x454303 (and ?T1 ?F2 ?G2)) $x433566 (or (not ?T1) $x107154 $x394637 $x404240 $x150040) (or (not ?Q1) ?R1) (or (not ?Q1) (and ?N1 ?R1 ?S1)) (or (not ?N1) ?O1) (or (not ?N1) (and ?K1 ?O1 (not ?P1))) $x202271 (or $x578847 (and ?Z ?L1 ?M1)) $x401288 (or (not ?Z) $x721252 $x254564 $x324089) (or (not ?V) (and ?W (not ?Y)) (and ?Y (not ?W))) $x331203 (or (not ?S) ?T) (or (not ?S) (and ?O ?T ?U)) (or (not ?O) ?P) (or (not ?O) (and ?I ?P (not ?Q))) $x924460 (or $x389405 (and ?J ?N (not ?L))) (or (not ?I) ?K) (or (not ?I) (and ?J ?K ?L)) (= ?H2 (= ?R2 0.0)))))
(=> $x526395 (|cp-rel-bb.i80.i| ?A ?S2 ?T2 ?U2 ?V2 ?W2 ?X2 ?Y2)))))))))))))))))))))))))))
)
(assert (forall ((?A Bool) (?B Real) (?C Real) (?D Real) (?E Real) (?F Real) (?G Real) (?H Real) (?I Bool) (?J Bool) (?K Bool) (?L Bool) (?M Bool) (?N Bool) (?O Bool) (?P Bool) (?Q Bool) (?R Bool) (?S Bool) (?T Bool) (?U Bool) (?V Bool) (?W Real) (?X Real) (?Y Real) (?Z Real) (?A1 Real) (?B1 Real) (?C1 Real) )(let (($x808337 (|cp-rel-__UFO__0| ?W ?X ?Y ?Z ?A1 ?B1 ?C1 ?A ?B ?C ?D ?E ?F ?G ?H)))
(let (($x104296 (and (|cp-rel-bb.i80.i| ?A ?B ?C ?D ?E ?F ?G ?H) (= ?V (or ?T ?S)) (= ?U (= ?H 0.0)) (= ?T (= ?G 0.0)) (= ?S (= ?F 0.0)) (= ?O (or ?R ?Q)) (= ?R (= ?H 0.0)) (= ?Q (= ?G 0.0)) (= ?J (= ?F 0.0)) (not (= ?P true)) (= ?M true) (or (not ?M) ?N) (or (not ?M) (and ?K ?N (not ?O))) (or (not ?K) ?L) (or (not ?K) (and ?I ?L (not ?J))) (= ?P (or ?V ?U)))))
(=> $x104296 $x808337))))
)
(assert (forall ((?A Bool) (?B Real) (?C Real) (?D Real) (?E Real) (?F Real) (?G Real) (?H Real) (?I Real) (?J Real) (?K Real) (?L Real) (?M Real) (?N Real) (?O Real) (?P Bool) )(let (($x353724 (|cp-rel-__UFO__0| ?B ?C ?D ?E ?F ?G ?H ?A ?I ?J ?K ?L ?M ?N ?O)))
(=> (and $x353724 (= ?P true)) $x353724)))
)
(assert (forall ((?A Bool) (?B Real) (?C Real) (?D Real) (?E Real) (?F Real) (?G Real) (?H Real) (?I Bool) (?J Bool) (?K Bool) (?L Bool) (?M Bool) (?N Bool) (?O Bool) (?P Bool) (?Q Bool) (?R Bool) (?S Bool) (?T Real) (?U Real) (?V Bool) (?W Bool) (?X Real) )(let (($x846629 (and (|cp-rel-bb.i80.i| ?A ?B ?C ?D ?E ?F ?G ?H) (= ?W (= ?X 5.0)) (= ?V (not (= ?U ?D))) (= ?U (+ 2.0 ?E)) (= ?R (= ?B 1.0)) (= ?O (= ?T 0.0)) (= ?L (= ?F 0.0)) (= ?S true) (= ?P true) (or (not ?P) ?Q) (or (not ?P) (and ?M ?Q ?R)) (or (not ?M) ?N) (or (not ?M) (and ?I ?N (not ?O))) (or (not ?I) ?K) (or (not ?I) (and ?J ?K ?L)) (= ?S (or ?W ?V)))))
(=> $x846629 |cp-rel-UnifiedReturnBlock|)))
)
(assert (not cp-rel-UnifiedReturnBlock))
(check-sat)
